; benchmark generated from python API
(set-info :status unknown)
(declare-fun p_1_6_1 () Int)
(declare-fun p_1_5_2 () Int)
(declare-fun p_1_3_4 () Int)
(declare-fun p_2_6_2 () Int)
(declare-fun p_2_1_3 () Int)
(declare-fun p_2_4_5 () Int)
(declare-fun p_3_6_3 () Int)
(declare-fun p_3_2_4 () Int)
(declare-fun p_3_5_1 () Int)
(declare-fun p_4_4_6 () Int)
(declare-fun p_4_3_5 () Int)
(declare-fun p_4_1_2 () Int)
(declare-fun p_5_5_6 () Int)
(declare-fun p_5_4_1 () Int)
(declare-fun p_5_2_3 () Int)
(assert
 (>= p_1_6_1 1))
(assert
 (<= p_1_6_1 3))
(assert
 (>= p_1_5_2 1))
(assert
 (<= p_1_5_2 3))
(assert
 (>= p_1_3_4 1))
(assert
 (<= p_1_3_4 3))
(assert
 (>= p_2_6_2 1))
(assert
 (<= p_2_6_2 3))
(assert
 (>= p_2_1_3 1))
(assert
 (<= p_2_1_3 3))
(assert
 (>= p_2_4_5 1))
(assert
 (<= p_2_4_5 3))
(assert
 (>= p_3_6_3 1))
(assert
 (<= p_3_6_3 3))
(assert
 (>= p_3_2_4 1))
(assert
 (<= p_3_2_4 3))
(assert
 (>= p_3_5_1 1))
(assert
 (<= p_3_5_1 3))
(assert
 (>= p_4_4_6 1))
(assert
 (<= p_4_4_6 3))
(assert
 (>= p_4_3_5 1))
(assert
 (<= p_4_3_5 3))
(assert
 (>= p_4_1_2 1))
(assert
 (<= p_4_1_2 3))
(assert
 (>= p_5_5_6 1))
(assert
 (<= p_5_5_6 3))
(assert
 (>= p_5_4_1 1))
(assert
 (<= p_5_4_1 3))
(assert
 (>= p_5_2_3 1))
(assert
 (<= p_5_2_3 3))
(assert
 (= p_1_3_4 1))
(assert
 (= p_1_5_2 2))
(assert
 (= p_1_6_1 3))
(assert
 (let (($x52 (= p_1_3_4 1)))
 (let (($x57 (= p_1_5_2 1)))
 (let (($x56 (= p_1_6_1 1)))
 ((_ pbeq 1 1 1 1) $x56 $x57 $x52)))))
(assert
 (let (($x60 (= p_1_3_4 2)))
 (let (($x54 (= p_1_5_2 2)))
 (let (($x59 (= p_1_6_1 2)))
 ((_ pbeq 1 1 1 1) $x59 $x54 $x60)))))
(assert
 (let (($x63 (= p_1_3_4 3)))
 (let (($x62 (= p_1_5_2 3)))
 (let (($x55 (= p_1_6_1 3)))
 ((_ pbeq 1 1 1 1) $x55 $x62 $x63)))))
(assert
 (let (($x67 (= p_2_4_5 1)))
 (let (($x66 (= p_2_1_3 1)))
 (let (($x65 (= p_2_6_2 1)))
 ((_ pbeq 1 1 1 1) $x65 $x66 $x67)))))
(assert
 (let (($x71 (= p_2_4_5 2)))
 (let (($x70 (= p_2_1_3 2)))
 (let (($x69 (= p_2_6_2 2)))
 ((_ pbeq 1 1 1 1) $x69 $x70 $x71)))))
(assert
 (let (($x75 (= p_2_4_5 3)))
 (let (($x74 (= p_2_1_3 3)))
 (let (($x73 (= p_2_6_2 3)))
 ((_ pbeq 1 1 1 1) $x73 $x74 $x75)))))
(assert
 (let (($x79 (= p_3_5_1 1)))
 (let (($x78 (= p_3_2_4 1)))
 (let (($x77 (= p_3_6_3 1)))
 ((_ pbeq 1 1 1 1) $x77 $x78 $x79)))))
(assert
 (let (($x83 (= p_3_5_1 2)))
 (let (($x82 (= p_3_2_4 2)))
 (let (($x81 (= p_3_6_3 2)))
 ((_ pbeq 1 1 1 1) $x81 $x82 $x83)))))
(assert
 (let (($x87 (= p_3_5_1 3)))
 (let (($x86 (= p_3_2_4 3)))
 (let (($x85 (= p_3_6_3 3)))
 ((_ pbeq 1 1 1 1) $x85 $x86 $x87)))))
(assert
 (let (($x91 (= p_4_1_2 1)))
 (let (($x90 (= p_4_3_5 1)))
 (let (($x89 (= p_4_4_6 1)))
 ((_ pbeq 1 1 1 1) $x89 $x90 $x91)))))
(assert
 (let (($x95 (= p_4_1_2 2)))
 (let (($x94 (= p_4_3_5 2)))
 (let (($x93 (= p_4_4_6 2)))
 ((_ pbeq 1 1 1 1) $x93 $x94 $x95)))))
(assert
 (let (($x99 (= p_4_1_2 3)))
 (let (($x98 (= p_4_3_5 3)))
 (let (($x97 (= p_4_4_6 3)))
 ((_ pbeq 1 1 1 1) $x97 $x98 $x99)))))
(assert
 (let (($x103 (= p_5_2_3 1)))
 (let (($x102 (= p_5_4_1 1)))
 (let (($x101 (= p_5_5_6 1)))
 ((_ pbeq 1 1 1 1) $x101 $x102 $x103)))))
(assert
 (let (($x107 (= p_5_2_3 2)))
 (let (($x106 (= p_5_4_1 2)))
 (let (($x105 (= p_5_5_6 2)))
 ((_ pbeq 1 1 1 1) $x105 $x106 $x107)))))
(assert
 (let (($x111 (= p_5_2_3 3)))
 (let (($x110 (= p_5_4_1 3)))
 (let (($x109 (= p_5_5_6 3)))
 ((_ pbeq 1 1 1 1) $x109 $x110 $x111)))))
(assert
 (let (($x102 (= p_5_4_1 1)))
 (let (($x91 (= p_4_1_2 1)))
 (let (($x79 (= p_3_5_1 1)))
 (let (($x66 (= p_2_1_3 1)))
 (let (($x56 (= p_1_6_1 1)))
 ((_ at-most 2) $x56 $x66 $x79 $x91 $x102)))))))
(assert
 (let (($x106 (= p_5_4_1 2)))
 (let (($x95 (= p_4_1_2 2)))
 (let (($x83 (= p_3_5_1 2)))
 (let (($x70 (= p_2_1_3 2)))
 (let (($x59 (= p_1_6_1 2)))
 ((_ at-most 2) $x59 $x70 $x83 $x95 $x106)))))))
(assert
 (let (($x110 (= p_5_4_1 3)))
 (let (($x99 (= p_4_1_2 3)))
 (let (($x87 (= p_3_5_1 3)))
 (let (($x74 (= p_2_1_3 3)))
 (let (($x55 (= p_1_6_1 3)))
 ((_ at-most 2) $x55 $x74 $x87 $x99 $x110)))))))
(assert
 (let (($x103 (= p_5_2_3 1)))
 (let (($x91 (= p_4_1_2 1)))
 (let (($x78 (= p_3_2_4 1)))
 (let (($x65 (= p_2_6_2 1)))
 (let (($x57 (= p_1_5_2 1)))
 ((_ at-most 2) $x57 $x65 $x78 $x91 $x103)))))))
(assert
 (let (($x107 (= p_5_2_3 2)))
 (let (($x95 (= p_4_1_2 2)))
 (let (($x82 (= p_3_2_4 2)))
 (let (($x69 (= p_2_6_2 2)))
 (let (($x54 (= p_1_5_2 2)))
 ((_ at-most 2) $x54 $x69 $x82 $x95 $x107)))))))
(assert
 (let (($x111 (= p_5_2_3 3)))
 (let (($x99 (= p_4_1_2 3)))
 (let (($x86 (= p_3_2_4 3)))
 (let (($x73 (= p_2_6_2 3)))
 (let (($x62 (= p_1_5_2 3)))
 ((_ at-most 2) $x62 $x73 $x86 $x99 $x111)))))))
(assert
 (let (($x103 (= p_5_2_3 1)))
 (let (($x90 (= p_4_3_5 1)))
 (let (($x77 (= p_3_6_3 1)))
 (let (($x66 (= p_2_1_3 1)))
 (let (($x52 (= p_1_3_4 1)))
 ((_ at-most 2) $x52 $x66 $x77 $x90 $x103)))))))
(assert
 (let (($x107 (= p_5_2_3 2)))
 (let (($x94 (= p_4_3_5 2)))
 (let (($x81 (= p_3_6_3 2)))
 (let (($x70 (= p_2_1_3 2)))
 (let (($x60 (= p_1_3_4 2)))
 ((_ at-most 2) $x60 $x70 $x81 $x94 $x107)))))))
(assert
 (let (($x111 (= p_5_2_3 3)))
 (let (($x98 (= p_4_3_5 3)))
 (let (($x85 (= p_3_6_3 3)))
 (let (($x74 (= p_2_1_3 3)))
 (let (($x63 (= p_1_3_4 3)))
 ((_ at-most 2) $x63 $x74 $x85 $x98 $x111)))))))
(assert
 (let (($x102 (= p_5_4_1 1)))
 (let (($x89 (= p_4_4_6 1)))
 (let (($x78 (= p_3_2_4 1)))
 (let (($x67 (= p_2_4_5 1)))
 (let (($x52 (= p_1_3_4 1)))
 ((_ at-most 2) $x52 $x67 $x78 $x89 $x102)))))))
(assert
 (let (($x106 (= p_5_4_1 2)))
 (let (($x93 (= p_4_4_6 2)))
 (let (($x82 (= p_3_2_4 2)))
 (let (($x71 (= p_2_4_5 2)))
 (let (($x60 (= p_1_3_4 2)))
 ((_ at-most 2) $x60 $x71 $x82 $x93 $x106)))))))
(assert
 (let (($x110 (= p_5_4_1 3)))
 (let (($x97 (= p_4_4_6 3)))
 (let (($x86 (= p_3_2_4 3)))
 (let (($x75 (= p_2_4_5 3)))
 (let (($x63 (= p_1_3_4 3)))
 ((_ at-most 2) $x63 $x75 $x86 $x97 $x110)))))))
(assert
 (let (($x101 (= p_5_5_6 1)))
 (let (($x90 (= p_4_3_5 1)))
 (let (($x79 (= p_3_5_1 1)))
 (let (($x67 (= p_2_4_5 1)))
 (let (($x57 (= p_1_5_2 1)))
 ((_ at-most 2) $x57 $x67 $x79 $x90 $x101)))))))
(assert
 (let (($x105 (= p_5_5_6 2)))
 (let (($x94 (= p_4_3_5 2)))
 (let (($x83 (= p_3_5_1 2)))
 (let (($x71 (= p_2_4_5 2)))
 (let (($x54 (= p_1_5_2 2)))
 ((_ at-most 2) $x54 $x71 $x83 $x94 $x105)))))))
(assert
 (let (($x109 (= p_5_5_6 3)))
 (let (($x98 (= p_4_3_5 3)))
 (let (($x87 (= p_3_5_1 3)))
 (let (($x75 (= p_2_4_5 3)))
 (let (($x62 (= p_1_5_2 3)))
 ((_ at-most 2) $x62 $x75 $x87 $x98 $x109)))))))
(assert
 (let (($x101 (= p_5_5_6 1)))
 (let (($x89 (= p_4_4_6 1)))
 (let (($x77 (= p_3_6_3 1)))
 (let (($x65 (= p_2_6_2 1)))
 (let (($x56 (= p_1_6_1 1)))
 ((_ at-most 2) $x56 $x65 $x77 $x89 $x101)))))))
(assert
 (let (($x105 (= p_5_5_6 2)))
 (let (($x93 (= p_4_4_6 2)))
 (let (($x81 (= p_3_6_3 2)))
 (let (($x69 (= p_2_6_2 2)))
 (let (($x59 (= p_1_6_1 2)))
 ((_ at-most 2) $x59 $x69 $x81 $x93 $x105)))))))
(assert
 (let (($x109 (= p_5_5_6 3)))
(let (($x97 (= p_4_4_6 3)))
(let (($x85 (= p_3_6_3 3)))
(let (($x73 (= p_2_6_2 3)))
(let (($x55 (= p_1_6_1 3)))
((_ at-most 2) $x55 $x73 $x85 $x97 $x109)))))))
(check-sat)
(get-model)
